p cnf 613 1456
c ind 604 586 505 597 598 507 607 589 605 606 0
c ind 610 591 523 608 519 520 540 554 541 559 0
c ind 595 596 609 611 588 592 593 603 584 556 0
c ind 513 508 512 587 600 601 602 510 555 509 0
c ind 522 590 511 583 574 599 594 572 528 544 0
c ind 547 560 557 570 529 576 573 567 569 578 0
c ind 571 568 575 581 577 580 548 552 582 551 0
c ind 558 563 545 534 536 553 579 566 535 527 0
c ind 585 524 531 546 514 561 549 518 526 550 0
c ind 565 517 533 539 564 537 542 521 515 532 0
c ind 530 538 562 516 525 543 506 1 0
c ret 337 460 461 462 463 464 465 466 372 467 0
c ret 338 373 468 469 470 471 374 472 473 474 0
c ret 475 476 477 339 478 479 480 481 375 482 0
c ret 376 483 484 340 485 486 487 488 489 490 0
c ret 491 492 493 494 495 496 497 498 499 500 0
c ret 341 501 502 503 504 342 377 343 378 379 0
c ret 380 344 329 345 381 346 382 383 347 384 0
c ret 348 385 349 350 386 351 387 388 330 352 0
c ret 353 389 390 391 392 393 394 395 354 396 0
c ret 355 356 397 398 357 399 400 401 402 403 0
c ret 404 331 358 405 406 407 408 409 410 411 0
c ret 412 359 360 361 362 363 413 364 414 415 0
c ret 332 365 416 417 418 419 420 333 421 422 0
c ret 423 424 425 426 427 428 429 334 430 431 0
c ret 432 433 434 435 366 436 367 437 438 439 0
c ret 440 368 369 441 335 442 443 444 445 370 0
c ret 371 446 447 448 449 450 451 336 452 453 0
c ret 454 455 456 457 458 459 0
2 3 -45 0
2 8 -45 -330 0
-2 45 0
-2 -3 -8 0
-2 -3 330 0
3 -4 -5 0
-3 4 0
-3 5 0
4 383 -431 0
4 -431 -432 0
-4 431 0
-4 -383 432 0
5 -332 -478 0
5 -6 332 0
-5 6 332 0
-5 -332 478 0
6 -334 -457 0
6 -7 334 0
-6 7 334 0
-6 -334 457 0
7 -336 -433 0
7 336 -434 0
-7 336 434 0
-7 -336 433 0
8 -9 -38 472 0
8 -9 -26 -38 0
-8 38 0
-8 9 0
-8 26 -472 0
9 10 24 0
9 10 332 0
9 -24 -332 455 0
-9 -10 332 0
-9 -24 -332 -455 0
-9 -10 24 0
10 21 -334 0
10 11 21 0
-10 -21 0
-10 -11 334 0
11 -14 -336 0
11 12 336 0
-11 -12 336 0
-11 14 -336 0
12 -354 -375 0
12 -13 -375 0
-12 375 0
-12 13 354 0
13 -347 -348 -376 0
-13 347 0
-13 348 0
-13 376 0
12 14 15 0
14 -15 404 0
-12 -14 15 0
-14 -15 -404 0
15 16 355 0
-15 -355 0
-15 -16 0
16 17 -405 0
-16 405 0
-16 -17 0
17 18 408 0
17 18 409 0
-17 -18 0
-17 -408 -409 0
18 19 -20 355 405 0
-18 20 0
-18 -19 0
-18 -355 0
-18 -405 0
19 356 365 -412 0
-19 412 0
-19 -365 0
-19 -356 0
20 -406 408 409 0
-20 406 0
-20 -409 0
-20 -408 0
21 22 -334 0
-21 334 0
-21 -22 0
22 -23 -429 0
11 22 23 0
-11 -22 23 0
-22 -23 429 0
16 23 336 355 0
-23 -336 0
-16 -23 0
-23 -355 0
-15 24 -25 0
15 -24 0
-24 25 0
25 334 336 0
-25 -334 0
-25 -336 0
26 33 463 470 0
26 -27 33 470 0
-26 -33 0
-26 -470 0
-26 27 -463 0
27 -332 463 0
27 -28 332 0
-27 -332 -463 0
-27 28 332 0
28 -334 440 0
28 -29 334 0
-28 -334 -440 0
-28 29 334 0
29 -336 415 0
29 -30 336 0
-29 -336 -415 0
-29 30 336 0
30 -32 362 0
30 -32 -373 0
30 31 -32 0
-30 32 0
-30 -31 -362 373 0
31 392 394 395 -396 0
-31 396 0
-31 -395 0
-31 -392 0
-31 -394 0
32 394 395 0
32 373 392 0
32 392 395 0
32 373 394 0
-32 -392 -394 0
-32 -373 -395 0
33 34 -440 0
33 34 -462 0
-33 -34 0
-33 440 462 0
34 35 332 0
34 -332 440 462 0
-34 -332 -440 0
-34 -35 332 0
-34 -332 -462 0
35 -334 -415 0
35 36 334 0
35 -334 -439 0
-35 -36 334 0
-35 -334 415 439 0
36 -37 336 0
-36 -336 0
-36 37 0
37 -373 392 0
37 373 391 0
-37 373 -391 0
-37 -373 -392 0
38 -39 479 0
-38 -479 0
-38 39 0
39 -332 460 0
39 -40 332 0
-39 -332 -460 0
-39 40 332 0
40 -334 437 0
40 -41 334 0
-40 -334 -437 0
-40 41 334 0
41 -336 413 0
41 -42 336 0
-41 -336 -413 0
-41 42 336 0
42 43 344 0
42 43 366 367 0
-42 -43 0
-42 -344 -367 0
-42 -344 -366 0
43 44 345 -366 -367 0
-43 -345 0
-43 -44 0
-43 367 0
-43 366 0
44 -368 -369 0
-44 368 0
-44 369 0
45 54 -208 0
-9 45 -46 -208 0
9 45 46 -208 0
-45 208 0
9 -45 -46 -54 0
-9 -45 46 -54 0
46 -47 506 0
46 -49 -506 -574 0
46 -47 49 0
-46 47 49 0
-46 47 506 0
-46 -49 -506 574 0
47 -524 -545 0
47 -48 -545 0
-47 545 0
-47 48 524 0
48 -517 -518 -546 0
-48 517 0
-48 518 0
-48 546 0
49 525 575 0
49 -50 525 0
-49 -525 0
-49 50 -575 0
50 51 578 0
50 51 579 0
-50 -51 0
-50 -578 -579 0
51 52 -53 525 575 0
-51 53 0
-51 -52 0
-51 -525 0
-51 -575 0
52 526 535 -582 0
-52 582 0
-52 -535 0
-52 -526 0
53 -576 578 579 0
-53 576 0
-53 -579 0
-53 -578 0
54 55 57 -64 -84 0
54 -55 -57 -64 -84 0
-54 84 0
-54 -55 57 0
-54 64 0
-54 55 -57 0
55 56 486 488 0
-27 55 56 486 0
-55 -486 0
-55 -56 0
27 -55 -488 0
34 56 -463 0
34 56 -487 0
-34 -56 0
-56 463 487 0
57 -62 585 592 0
57 58 -62 592 0
-57 62 0
-57 -592 0
-57 -58 -585 0
58 59 506 0
-58 -506 0
-58 -59 0
59 -61 532 0
59 -61 -543 0
59 60 -61 0
-59 61 0
-59 -60 -532 543 0
60 562 564 565 -566 0
-60 566 0
-60 -565 0
-60 -562 0
-60 -564 0
61 564 565 0
61 543 562 0
61 562 565 0
61 543 564 0
-61 -562 -564 0
-61 -543 -565 0
62 -63 506 0
-62 -506 0
-62 63 0
63 -543 562 0
63 543 561 0
-63 543 -561 0
-63 -543 -562 0
27 64 65 66 71 0
-27 64 -65 66 71 0
-64 -66 0
-27 -64 65 0
-64 -71 0
27 -64 -65 0
58 65 506 0
58 65 585 0
-58 -65 0
-65 -506 -585 0
-39 66 67 0
39 -66 0
-66 -67 0
67 -506 583 0
67 -68 506 0
-67 -506 -583 0
-67 68 506 0
68 69 514 0
68 69 536 537 0
-68 -69 0
-68 -514 -537 0
-68 -514 -536 0
69 70 515 -536 -537 0
-69 -515 0
-69 -70 0
-69 537 0
-69 536 0
70 -538 -539 0
-70 538 0
-70 539 0
71 -72 -506 0
71 74 -506 0
71 -73 -506 0
-71 506 0
-71 72 73 -74 0
-49 72 -574 0
-72 574 0
49 -72 0
-47 49 73 0
47 -73 0
-49 -73 0
74 75 -79 81 82 0
-74 79 0
-74 -82 0
-74 -75 0
-74 -81 0
75 -76 77 0
-75 76 0
-75 -77 0
-63 76 567 0
-76 -567 0
63 -76 0
-59 -63 77 560 0
-59 77 -78 560 0
-77 -560 0
59 -77 0
63 -77 78 0
78 563 564 0
78 -543 564 0
78 531 543 -564 0
-78 -531 -564 0
-78 -543 -564 0
-78 543 -563 564 0
79 80 553 0
79 80 -552 0
79 80 551 0
-79 -80 0
-79 -551 552 -553 0
-68 80 -516 0
-80 516 0
68 -80 0
81 -521 571 0
-81 521 0
-81 -571 0
82 83 568 0
-82 -568 0
-82 -83 0
83 542 543 0
83 530 -543 0
-83 -542 543 0
-83 -530 -543 0
46 84 85 -88 0
84 85 -87 -88 0
-84 88 0
-84 -85 0
-46 -84 87 0
39 -67 85 0
46 -67 85 -86 0
67 -85 0
-39 -85 86 0
-39 -46 -85 0
-57 86 603 0
86 594 603 0
-86 -603 0
57 -86 -594 0
87 506 525 0
-87 -506 0
-87 -525 0
88 89 90 -91 -94 0
88 -89 -90 -91 -94 0
-88 94 0
-88 -89 90 0
-88 91 0
-88 89 -90 0
-34 89 489 0
89 488 489 0
-89 -489 0
34 -89 -488 0
-62 90 593 0
90 585 593 0
-90 -593 0
62 -90 -585 0
34 91 92 93 0
-62 91 92 93 0
-91 -93 0
-91 -92 0
-34 62 -91 0
57 -90 92 0
-57 -92 0
90 -92 0
-76 93 -532 0
-77 93 -532 0
-93 532 0
76 77 -93 0
94 95 -97 -100 -103 0
94 -95 97 -100 -103 0
-94 103 0
-94 95 97 0
-94 100 0
-94 -95 -97 0
95 -96 -506 0
95 506 575 0
-95 506 -575 0
-95 96 -506 0
-50 96 575 0
-50 96 525 0
50 -96 0
-96 -525 -575 0
97 -98 -405 0
97 98 99 0
-97 -98 405 0
-97 98 -99 0
98 332 334 336 0
-98 -332 0
-98 -336 0
-98 -334 0
-17 99 405 0
-17 99 355 0
17 -99 0
-99 -355 -405 0
75 96 99 100 101 0
75 -96 -99 100 101 0
-100 -101 0
-96 99 -100 0
-75 -100 0
96 -99 -100 0
-5 101 102 0
5 -101 0
-101 -102 0
102 -506 -601 0
102 506 -602 0
-102 506 602 0
-102 -506 601 0
103 -104 -126 -127 -152 0
-103 152 0
-103 104 0
-103 127 0
-103 126 0
104 105 106 108 -112 0
104 -105 -106 108 -112 0
-104 -108 0
-104 105 -106 0
-104 112 0
-104 -105 106 0
105 506 607 0
48 105 506 528 0
-105 -506 0
-105 -528 -607 0
-48 -105 -607 0
106 -107 500 0
13 106 -107 358 0
-106 107 0
-13 -106 -500 0
-106 -358 -500 0
-25 107 332 0
-107 -332 0
25 -107 0
108 109 -110 0
108 109 594 0
-108 -109 0
-108 110 -594 0
-83 109 -585 0
109 585 595 0
-109 585 -595 0
83 -109 -585 0
110 -111 -488 0
110 488 492 0
-110 488 -492 0
-110 111 -488 0
111 372 373 0
111 360 -373 0
-111 -372 373 0
-111 -360 -373 0
112 113 114 120 125 0
112 113 -114 -120 125 0
-112 -125 0
-112 -114 120 0
-112 -113 0
-112 114 -120 0
-62 113 -567 593 0
62 113 585 593 0
-113 -593 0
-62 -113 567 0
62 -113 -585 0
114 -116 537 0
114 115 -116 539 0
-114 116 0
-114 -115 -537 0
-114 -537 -539 0
115 515 -549 0
-115 -515 0
-115 549 0
116 117 118 -119 0
116 -117 -119 515 0
-116 119 0
-116 117 -118 0
-116 -117 -515 0
117 -516 -550 0
-117 516 0
-117 550 0
118 -539 -549 0
-118 539 0
-118 549 0
119 506 538 0
-119 -506 0
-119 -538 0
120 -121 -123 367 0
120 -121 -122 -123 0
-120 123 0
-120 121 0
-120 122 -367 0
-98 121 368 0
-121 -368 0
98 -121 0
122 369 379 0
122 -345 369 0
-122 -369 0
-122 345 -379 0
123 124 369 0
123 -124 345 0
123 124 379 0
-123 -124 -345 0
-123 124 -369 -379 0
124 -346 -380 0
-124 346 0
-124 380 0
-80 125 506 0
-125 -506 0
80 -125 0
-34 -76 126 0
57 62 126 0
-34 57 126 0
62 -76 126 0
34 -62 -126 0
-57 76 -126 0
127 -128 -135 -147 -151 0
-127 151 0
-127 128 0
-127 147 0
-127 135 0
47 128 129 -130 0
128 129 -130 525 0
-128 130 0
-128 -129 0
-47 -128 -525 0
-82 129 -569 0
78 -82 129 0
82 -129 0
-78 -129 569 0
130 131 132 -133 -134 0
130 -131 -132 -133 -134 0
130 131 132 133 134 0
130 -131 -132 133 134 0
-130 131 -132 0
-130 -131 132 0
-130 133 -134 0
-130 -133 134 0
131 506 -605 0
-131 -506 0
-131 605 0
-98 132 -498 0
-132 498 0
98 -132 0
133 506 -577 0
-133 -506 0
-133 577 0
-98 134 -407 0
-134 407 0
98 -134 0
135 -136 -140 144 146 0
-135 140 0
-135 -146 0
-135 136 0
-135 -144 0
82 136 -137 506 0
82 107 136 -137 0
-136 137 0
-82 -136 0
-107 -136 -506 0
-83 137 138 0
111 137 138 0
-137 -138 0
83 -111 -137 0
138 -139 -525 -526 527 0
-138 139 0
-138 525 0
-138 526 0
-138 -527 0
139 -517 -524 0
-139 517 0
-139 524 0
140 -141 -143 383 553 0
140 -141 -143 -383 -553 0
-140 143 0
-140 -383 553 0
-140 141 0
-140 383 -553 0
141 -142 -431 -599 0
141 -142 431 599 0
-141 142 0
-141 -431 599 0
-141 431 -599 0
142 -490 582 0
142 -412 594 0
142 -412 -490 0
142 582 594 0
-142 490 -594 0
-142 412 -582 0
143 -432 596 0
143 -493 600 0
143 -432 -493 0
143 596 600 0
-143 432 -600 0
-143 493 -596 0
144 145 596 0
144 145 506 521 0
-144 -145 0
-144 -521 -596 0
-144 -506 -596 0
145 332 334 336 351 0
-145 -351 0
-145 -336 0
-145 -332 0
-145 -334 0
146 -506 588 0
146 -521 588 0
146 -571 588 0
-146 -588 0
-146 506 521 571 0
80 -87 147 -148 -150 0
80 87 147 -148 150 0
-80 -147 0
-87 -147 150 0
-147 148 0
87 -147 -150 0
145 148 149 0
148 149 506 521 0
-148 -149 0
-145 -148 -521 0
-145 -148 -506 0
83 149 529 -544 0
-149 -529 0
-149 544 0
-83 -149 0
150 332 334 336 355 0
-150 -355 0
-150 -336 0
-150 -332 0
-150 -334 0
-5 -79 151 0
102 151 -506 0
-5 151 -506 0
-79 102 151 0
5 -102 -151 0
79 -151 506 0
-79 152 -153 163 -164 0
-152 164 0
79 -152 0
-152 153 0
-152 -163 0
153 -154 -155 -156 0
153 154 155 -156 0
-153 156 0
-153 -154 155 0
-153 154 -155 0
154 -506 -553 0
154 506 -606 0
-154 506 606 0
-154 -506 553 0
-107 155 -499 0
107 155 -383 0
107 -155 383 0
-107 -155 499 0
156 157 158 159 160 0
156 157 -158 -159 160 0
-156 -160 0
-156 -158 159 0
-156 -157 0
-156 158 -159 0
-107 157 381 -506 0
-107 157 381 -551 0
-157 -381 0
107 -157 0
-157 506 551 0
-98 158 -346 0
-158 346 0
98 -158 0
159 506 -516 0
-159 -506 0
-159 516 0
160 -161 -521 0
160 162 -521 0
160 -521 540 0
-160 521 0
-160 161 -162 -540 0
161 -519 520 0
-161 519 0
-161 -520 0
162 -522 0
162 523 -541 0
-162 522 -523 0
-162 522 541 0
-109 110 163 0
-109 163 -594 599 0
109 -163 0
-110 -163 594 0
-110 -163 -599 0
164 -165 -176 -196 -203 0
-164 203 0
-164 165 0
-164 196 0
-164 176 0
165 -166 -168 -170 -174 0
-165 174 0
-165 166 0
-165 170 0
-165 168 0
166 167 521 0
166 167 -547 -571 0
-166 -167 0
-166 -521 547 0
-166 -521 571 0
167 514 -515 -516 0
-167 516 0
-167 515 0
-167 -514 0
168 169 -556 0
168 169 521 547 0
-168 -169 0
-168 -547 556 0
-168 -521 556 0
169 517 -525 528 0
169 517 524 -525 0
-169 -517 0
-169 525 0
-169 -524 -528 0
-102 170 171 -172 -173 0
-102 170 171 172 173 0
-170 -171 0
-170 172 -173 0
102 -170 0
-170 -172 173 0
171 506 -521 571 0
-171 -506 0
-171 521 0
-171 -571 0
172 585 608 0
-172 -585 0
-172 -608 0
173 488 501 0
-173 -488 0
-173 -501 0
-111 174 175 0
83 174 175 -594 0
-174 -175 0
-83 111 -174 0
111 -174 594 0
175 -381 506 551 0
107 175 506 551 0
-175 -551 0
-175 -506 0
-107 -175 381 0
176 -177 -188 -191 -194 0
-176 194 0
-176 177 0
-176 191 0
-176 188 0
177 -178 -183 -184 -185 0
-177 185 0
-177 178 0
-177 184 0
-177 183 0
178 -179 -182 507 -555 0
178 -179 -182 -507 555 0
-178 182 0
-178 507 555 0
-178 179 0
-178 -507 -555 0
179 180 -181 490 0
179 180 -181 -594 0
-179 181 0
-179 -180 0
-179 -490 594 0
180 -534 568 0
-180 534 0
-180 -568 0
181 432 517 0
181 -518 -600 0
181 517 -600 0
181 432 -518 0
-181 -517 518 0
-181 -432 600 0
182 412 502 0
182 -582 -609 0
182 412 -609 0
182 502 -582 0
-182 -412 582 0
-182 -502 609 0
183 -502 534 0
183 -364 609 0
183 -364 -502 0
183 534 609 0
-183 502 -609 0
-183 364 -534 0
184 -517 -600 0
184 -526 553 0
184 -517 553 0
184 -526 -600 0
-184 517 526 0
-184 -553 600 0
185 186 187 496 603 0
185 186 187 -496 -603 0
-185 -186 0
-185 -496 603 0
-185 -187 0
-185 496 -603 0
186 -493 596 0
-186 493 0
-186 -596 0
187 -364 534 0
-187 364 0
-187 -534 0
83 188 -189 -505 587 0
83 188 -189 505 -587 0
-188 189 0
-188 505 587 0
-83 -188 0
-188 -505 -587 0
189 -190 530 0
189 -190 531 0
189 -190 -529 0
-189 190 0
-189 529 -530 -531 0
190 -529 533 0
190 -532 534 0
190 -529 -532 0
190 533 534 0
-190 529 -534 0
-190 532 -533 0
191 192 -193 -506 -534 0
-191 193 0
-191 506 0
-191 534 0
-191 -192 0
192 526 535 0
-192 -526 0
-192 -535 0
193 -554 555 -559 -586 0
-193 586 0
-193 554 0
-193 559 0
-193 -555 0
194 195 587 -591 -599 0
-194 -587 0
-194 -195 0
-194 599 0
-194 591 0
195 463 487 491 0
-195 -463 0
-195 -491 0
-195 -487 0
119 196 197 -200 0
-121 196 197 -200 0
-196 200 0
-196 -197 0
-119 121 -196 0
197 198 -199 0
-197 -198 0
-197 199 0
198 610 611 0
198 579 -611 0
198 -579 611 0
-198 -579 -611 0
-198 579 -610 611 0
199 503 504 0
199 409 -504 0
199 -409 504 0
-199 -409 -504 0
-199 409 -503 504 0
200 -506 0
200 -201 -552 0
200 -201 -202 0
-200 201 506 0
-200 202 506 552 0
-107 201 551 0
-107 201 -552 0
-107 201 553 0
107 -201 0
-201 -551 552 -553 0
-107 202 382 0
-202 -382 0
107 -202 0
198 203 204 -206 0
-199 203 204 -206 0
-203 206 0
-203 -204 0
-198 199 -203 0
204 -205 -509 0
204 -509 511 -513 0
-204 509 0
-204 205 -511 0
-204 205 513 0
205 -508 510 -511 512 0
-205 511 0
-205 -512 0
-205 508 0
-205 -510 0
-119 202 206 0
121 206 -207 0
121 202 206 0
-119 206 -207 0
119 -121 -206 0
-202 -206 207 0
207 506 552 0
-207 -506 0
-207 -552 0
208 -217 -230 0
208 209 -230 332 0
-208 230 0
-208 -209 217 0
-208 217 -332 0
209 210 216 0
10 209 210 -212 0
-209 -210 0
-10 -209 -216 0
-209 212 -216 0
-25 210 456 459 0
25 210 211 456 -459 0
-25 -210 -459 0
25 -210 -211 0
-210 -456 0
25 -210 459 0
-4 -6 211 0
4 -211 0
6 -211 0
-40 212 -213 458 0
-40 212 449 458 0
40 -212 0
-212 -458 0
-212 213 -449 0
213 214 440 447 0
-28 213 214 447 0
-213 -214 0
-213 -447 0
28 -213 -440 0
214 215 -415 0
214 215 -439 0
-214 -215 0
-214 415 439 0
-36 215 334 0
-215 -334 0
36 -215 0
25 -211 216 -456 0
-216 456 0
-25 -216 0
211 -216 0
217 -218 -219 227 -229 0
-217 229 0
-217 218 0
-217 219 0
-217 -227 0
10 24 218 0
-24 218 455 0
-10 24 -218 0
-24 -218 -455 0
-213 219 -221 -223 0
219 220 -221 -223 0
-219 223 0
-219 221 0
213 -219 -220 0
35 220 448 0
220 440 448 0
-220 -448 0
-35 -220 -440 0
25 221 0
40 221 222 0
221 222 346 0
-25 -221 -222 0
-25 -40 -221 -346 0
222 -381 382 -383 0
-222 381 0
-222 -382 0
-222 383 0
223 224 225 0
-223 -224 0
-223 -225 0
224 -334 452 0
224 -336 452 0
224 -351 452 0
-224 -452 0
-224 334 336 351 0
225 226 449 0
-225 -449 0
-225 -226 0
-111 226 -440 0
226 440 451 0
-226 440 -451 0
111 -226 -440 0
111 227 449 -450 0
111 227 228 449 0
-227 -449 0
-111 -227 0
-227 -228 450 0
228 415 439 0
-228 -415 0
-228 -439 0
-25 222 224 229 -332 0
25 -229 0
-224 -229 0
-229 332 0
-222 -229 0
-9 230 231 -247 0
-150 230 231 -247 0
-230 247 0
-230 -231 0
9 150 -230 0
-22 231 -232 0
231 238 -334 0
-22 231 -334 0
231 -232 238 0
22 -231 -238 0
-231 232 334 0
232 233 237 0
-11 232 233 -235 0
-232 -233 0
11 -232 -237 0
-232 235 -237 0
233 336 430 436 0
233 234 -336 430 -436 0
-233 -336 436 0
-233 -234 -436 0
-233 -430 0
-233 336 -436 0
-4 234 -336 -433 0
-4 234 336 -434 0
4 -234 0
-234 -336 433 0
-234 336 434 0
-41 235 -236 435 0
-41 235 424 435 0
41 -235 0
-235 -435 0
-235 236 -424 0
-36 236 415 422 0
-29 -36 236 422 0
36 -236 0
-236 -422 0
29 -236 -415 0
-234 237 -336 -430 0
-237 336 0
-237 430 0
234 -237 0
238 239 -242 -424 0
238 239 -241 -242 0
-238 242 0
-238 -239 0
-238 241 424 0
236 239 -240 0
-236 -239 0
-239 240 0
-36 240 423 0
240 415 423 0
-240 -423 0
36 -240 -415 0
-111 241 -415 0
241 415 425 0
-241 415 -425 0
111 -241 -415 0
242 243 -246 -424 0
-111 242 243 -246 0
-242 246 0
-242 -243 0
111 -242 424 0
243 244 336 0
-243 -336 0
-243 -244 0
222 244 245 0
-222 -244 0
-244 -245 0
-42 245 -346 0
-245 346 0
42 -245 0
246 -334 336 351 0
246 -334 336 -426 0
-246 334 0
-246 -336 0
-246 -351 426 0
-21 247 -249 0
247 248 -249 334 0
-247 249 0
21 -247 -334 0
21 -247 -248 0
11 248 -336 0
11 248 -355 0
-11 -248 0
-248 336 355 0
-219 249 -250 -324 -325 0
-249 325 0
219 -249 0
-249 324 0
-249 250 0
-55 250 -251 -323 0
55 89 250 -251 0
-250 251 0
-55 -250 323 0
55 -89 -250 0
26 251 -253 -319 0
251 -252 -253 -319 0
-251 319 0
-251 253 0
-26 -251 252 0
-220 252 332 0
-252 -332 0
220 -252 0
-213 253 -254 -315 0
252 253 -254 -315 0
-253 315 0
-253 254 0
213 -252 -253 0
-3 254 -255 312 0
254 -255 312 330 0
-254 255 0
-254 -312 0
3 -254 -330 0
255 -256 -279 -283 -302 0
-255 302 0
-255 256 0
-255 283 0
-255 279 0
256 -257 -274 -490 0
256 -257 -273 -274 0
-256 274 0
-256 257 0
-256 273 490 0
241 257 -258 -265 272 0
-241 -257 0
-257 -272 0
-257 265 0
-257 258 0
226 258 259 -260 0
226 258 -260 -332 0
-258 260 0
-226 -258 0
-258 -259 332 0
-25 -222 259 0
25 -259 0
222 -259 0
260 339 351 0
260 -261 -263 0
260 -263 351 0
260 -261 339 0
-260 261 -351 0
-260 263 -339 0
261 -262 -352 0
261 -262 353 -371 0
-261 262 0
-261 352 -353 0
-261 352 371 0
262 -350 -370 0
262 349 -370 0
-262 370 0
-262 -349 350 0
263 -341 -342 0
263 341 343 0
263 264 -341 0
-263 341 -343 0
-263 -264 -341 342 0
264 -338 340 0
-264 338 0
-264 -340 0
265 -266 -267 -269 -271 0
-265 271 0
-265 266 0
-265 269 0
-265 267 0
98 266 351 0
98 266 -377 -401 0
-98 -266 0
-266 -351 377 0
-266 -351 401 0
267 268 -347 -348 0
267 268 347 -356 0
-267 -268 0
-267 -347 348 0
-267 347 356 0
268 359 -360 -361 0
-268 361 0
-268 360 0
-268 -359 0
269 270 -418 0
269 270 336 401 0
-269 -270 0
-269 -401 418 0
-269 -336 418 0
270 -332 466 0
270 -452 466 0
-270 -466 0
-270 332 452 0
271 333 -337 385 -442 0
271 333 337 -385 -442 0
271 -333 337 -385 442 0
271 -333 -337 385 442 0
-271 -333 -442 0
-271 333 442 0
-271 -337 -385 0
-271 337 385 0
-111 272 -463 0
272 463 474 0
-272 463 -474 0
111 -272 -463 0
-195 -272 273 0
-111 -272 273 0
272 -273 0
111 195 -273 0
227 274 275 -277 0
-145 227 274 275 0
-274 -275 0
-227 -274 0
145 -274 277 0
111 275 472 -473 0
111 275 276 472 0
-275 -472 0
-111 -275 0
-275 -276 473 0
276 440 462 0
-276 -440 0
-276 -462 0
277 278 -466 -482 -493 0
-277 493 0
-277 -278 0
-277 466 0
-277 482 0
278 332 452 0
-278 -332 0
-278 -452 0
279 -280 281 -449 0
-241 279 -280 281 0
-279 280 0
-279 -281 0
241 -279 449 0
12 280 -490 0
-110 280 355 0
280 355 -490 0
12 -110 280 0
110 -280 490 0
-12 -280 -355 0
111 281 398 -399 0
111 281 282 398 0
-281 -398 0
-111 -281 0
-281 -282 399 0
282 393 394 0
282 -373 394 0
282 361 373 -394 0
-282 -361 -394 0
-282 -373 -394 0
-282 373 -393 394 0
283 -284 -289 -292 -295 0
-283 295 0
-283 284 0
-283 292 0
-283 289 0
284 -285 -286 -287 -288 0
-284 288 0
-284 285 0
-284 287 0
-284 286 0
285 417 -421 -441 442 0
-285 -417 0
-285 -442 0
-285 441 0
-285 421 0
286 385 -389 -398 -416 0
-286 -385 0
-286 416 0
-286 398 0
-286 389 0
287 -480 481 -485 0
-287 480 0
-287 -481 0
-287 485 0
288 -446 -464 465 -469 0
-288 469 0
-288 446 0
-288 464 0
-288 -465 0
289 290 291 335 -417 0
289 290 291 -335 417 0
-289 -290 0
-289 335 417 0
-289 -291 0
-289 -335 -417 0
290 362 -363 0
-290 -362 0
-290 363 0
291 359 -364 0
-291 -359 0
-291 364 0
292 -293 294 -331 465 0
292 -293 294 331 -465 0
-292 -294 0
-292 331 465 0
-292 293 0
-292 -331 -465 0
293 -364 -384 0
-293 364 0
-293 384 0
294 329 481 0
-294 -329 0
-294 -481 0
295 -296 -297 -299 -300 0
-295 300 0
-295 296 0
-295 299 0
-295 297 0
222 296 345 0
222 296 -344 0
222 296 346 0
-222 -296 0
-296 344 -345 -346 0
297 298 -443 0
297 298 334 426 0
-297 -298 0
-297 -426 443 0
-297 -334 443 0
298 -336 426 0
298 -351 426 0
-298 -426 0
-298 336 351 0
111 299 351 0
111 299 -336 0
111 299 -401 0
-111 -299 0
-299 336 -351 401 0
300 301 -386 0
300 301 351 377 0
-300 -301 0
-300 -377 386 0
-300 -351 386 0
301 347 -355 358 0
301 347 354 -355 0
-301 -347 0
-301 355 0
-301 -354 -358 0
-111 302 -304 -306 0
302 -303 -304 -306 0
-302 306 0
-302 304 0
111 -302 303 0
303 -359 -398 -424 0
303 374 -398 -424 0
-303 424 0
-303 398 0
-303 359 -374 0
224 304 305 0
224 304 347 0
224 304 354 0
-224 -304 0
-304 -305 -347 -354 0
305 -355 -356 357 0
-305 355 0
-305 356 0
-305 -357 0
306 -307 -310 -475 0
-145 306 -307 -310 0
-306 310 0
-306 307 0
145 -306 475 0
307 308 309 329 0
307 308 309 481 0
-307 -309 0
-307 -308 0
-307 -329 -481 0
308 356 365 0
-308 -356 0
-308 -365 0
309 -475 482 0
-309 475 0
-309 -482 0
310 -311 334 0
310 -334 -443 0
310 -426 -443 0
-310 -334 443 0
-310 311 443 0
-310 311 334 426 0
311 336 351 0
-311 -336 0
-311 -351 0
312 -313 -362 0
312 -314 -362 0
-312 362 0
-312 313 314 0
-37 313 397 0
-313 -397 0
37 -313 0
-30 -37 314 390 0
-30 -282 314 390 0
-314 -390 0
30 -314 0
37 282 -314 0
236 315 -316 0
315 -316 397 0
-315 316 0
-236 -315 -397 0
3 243 316 -317 318 0
-3 -316 0
-316 -318 0
-316 317 0
-243 -316 0
-226 245 317 0
245 317 -449 -472 0
-245 -317 0
226 -317 449 0
226 -317 472 0
-313 314 318 0
313 -318 0
-314 -318 0
213 319 320 0
-240 319 320 334 0
-319 -320 0
-213 240 -319 0
-213 -319 -334 0
-318 320 -336 0
320 321 -336 0
14 320 -336 0
-320 336 0
-14 318 -320 -321 0
-244 321 322 -401 0
-244 321 322 351 0
244 -321 0
-321 -322 0
-321 -351 401 0
111 322 398 0
-322 -398 0
-111 -322 0
-34 323 471 0
323 463 471 0
-323 -471 0
34 -323 -463 0
-26 -272 324 0
323 324 -472 0
-26 324 -472 0
-272 323 324 0
26 -323 -324 0
272 -324 472 0
-221 248 325 -326 327 0
-325 326 0
-325 -327 0
221 -325 0
-248 -325 0
239 326 -424 0
-326 424 0
-239 -326 0
-158 327 328 0
-327 -328 0
158 -327 0
40 328 332 0
-328 -332 0
-40 -328 0
1 2 0
-1 -2 0
612 0

